c FILE: i080-012

c SOURCE: From steinlib

c DESCRIPTION: Steinlib instance with 80 nodes and 350 edges.

p edge 80 350
e 1 4
e 1 13
e 1 17
e 1 26
e 1 38
e 1 41
e 1 42
e 1 46
e 1 53
e 1 55
e 1 67
e 2 22
e 2 25
e 2 29
e 2 35
e 2 38
e 2 47
e 2 58
e 2 59
e 2 64
e 2 65
e 2 69
e 2 79
e 3 4
e 3 12
e 3 16
e 3 20
e 3 30
e 3 38
e 3 41
e 3 69
e 3 70
e 3 71
e 4 13
e 4 27
e 4 42
e 4 46
e 4 60
e 5 14
e 5 60
e 5 70
e 5 76
e 5 78
e 6 15
e 6 19
e 6 24
e 6 29
e 6 47
e 6 67
e 6 74
e 7 12
e 7 28
e 7 34
e 7 37
e 7 40
e 7 43
e 7 49
e 7 64
e 7 70
e 7 77
e 8 9
e 8 15
e 8 43
e 8 46
e 8 50
e 8 57
e 8 65
e 9 11
e 9 18
e 9 20
e 9 27
e 9 30
e 9 54
e 9 77
e 10 11
e 10 33
e 10 43
e 10 47
e 10 52
e 10 56
e 10 58
e 10 61
e 10 63
e 10 69
e 11 48
e 11 58
e 11 64
e 11 68
e 12 19
e 12 37
e 12 38
e 12 52
e 12 57
e 12 63
e 12 66
e 12 73
e 13 24
e 13 29
e 13 39
e 13 44
e 13 67
e 13 68
e 13 80
e 14 22
e 14 34
e 14 65
e 14 66
e 14 77
e 15 26
e 15 47
e 15 60
e 16 38
e 16 52
e 16 75
e 17 23
e 17 25
e 17 30
e 17 52
e 17 56
e 17 69
e 17 70
e 17 72
e 17 78
e 18 31
e 18 34
e 18 63
e 18 70
e 18 73
e 18 74
e 18 76
e 18 80
e 19 27
e 19 43
e 19 44
e 19 49
e 19 60
e 19 66
e 19 71
e 19 74
e 19 75
e 19 80
e 20 34
e 20 42
e 20 47
e 20 51
e 20 53
e 20 54
e 20 69
e 21 30
e 21 33
e 21 37
e 21 45
e 21 50
e 21 52
e 21 58
e 21 64
e 22 35
e 22 37
e 22 38
e 22 42
e 22 43
e 22 46
e 22 53
e 22 55
e 22 56
e 22 65
e 22 76
e 23 30
e 23 32
e 23 54
e 23 57
e 23 60
e 23 65
e 23 67
e 23 77
e 23 78
e 24 39
e 24 57
e 24 60
e 24 71
e 25 38
e 25 60
e 25 68
e 25 70
e 25 80
e 26 40
e 26 41
e 26 50
e 26 61
e 26 65
e 27 38
e 27 43
e 27 60
e 27 65
e 28 34
e 28 36
e 28 40
e 28 42
e 28 43
e 28 68
e 28 76
e 28 79
e 29 33
e 29 38
e 29 44
e 29 52
e 29 62
e 29 67
e 30 31
e 30 41
e 30 42
e 30 48
e 30 56
e 30 58
e 30 59
e 31 37
e 31 41
e 31 52
e 31 65
e 31 68
e 31 69
e 32 33
e 32 42
e 32 44
e 32 48
e 32 49
e 32 74
e 33 34
e 33 38
e 33 58
e 33 61
e 33 67
e 34 51
e 34 59
e 35 41
e 35 56
e 35 70
e 36 39
e 36 42
e 36 77
e 37 47
e 37 53
e 37 65
e 37 75
e 37 79
e 38 47
e 38 49
e 38 55
e 38 58
e 38 68
e 38 70
e 38 71
e 39 45
e 39 53
e 39 57
e 40 41
e 40 47
e 40 51
e 40 61
e 40 75
e 41 42
e 41 51
e 41 52
e 41 54
e 41 71
e 42 51
e 42 79
e 44 51
e 44 60
e 44 65
e 45 65
e 45 72
e 46 71
e 46 74
e 47 65
e 47 67
e 47 74
e 48 53
e 48 72
e 49 59
e 49 68
e 50 55
e 50 58
e 50 73
e 50 74
e 50 75
e 51 54
e 51 78
e 52 56
e 52 59
e 52 67
e 52 72
e 52 73
e 52 77
e 52 79
e 53 65
e 53 75
e 55 57
e 55 65
e 55 69
e 56 57
e 57 58
e 57 70
e 57 73
e 57 74
e 58 65
e 58 66
e 58 70
e 58 74
e 58 78
e 59 69
e 59 70
e 59 76
e 59 80
e 60 61
e 60 62
e 60 68
e 60 78
e 61 66
e 61 72
e 62 63
e 62 70
e 63 68
e 63 72
e 63 76
e 64 66
e 64 68
e 64 77
e 65 70
e 65 71
e 65 72
e 65 78
e 66 78
e 66 79
e 67 72
e 67 74
e 68 69
e 68 70
e 68 71
e 68 72
e 68 74
e 69 75
e 69 77
e 69 78
e 70 77
e 70 78
e 72 73
e 72 76
e 72 79
e 73 75
